
--- Job Assignment_1_c.gms Start 12/30/21 21:43:10 37.1.0 r07954d5 WEX-WEI x86 64bit/MS Windows
--- Applying:
    D:\DESKTOP\37\gmsprmNT.txt
--- GAMS Parameters defined
    Input C:\Users\Administrator\Documents\gamsdir\projdir\Assignment_1_c.gms
    PageWidth 80
    PageSize 0
    PageContr 3
    Action CE
    ScrDir C:\Users\Administrator\Documents\gamsdir\projdir\225a\
    SysDir D:\DESKTOP\37\
    WorkDir C:\Users\Administrator\Documents\gamsdir\projdir\
    LogOption 3
    DFormat 0
    TFormat 0
    ErrorLog 99
    IDE 1
Licensee: GAMS Demo license for Melis Tuncer             G211223|0002CO-GEN
          Bogazici University, Turkey                              DL056714
          C:\Users\Administrator\Documents\GAMS\gamslice.txt
          melistuncer7@hotmail.com, Melis Tuncer                           
          Demo license for demonstration and instructional purposes only
Processor information: 1 socket(s), 4 core(s), and 8 thread(s) available
GAMS 37.1.0   Copyright (C) 1987-2021 GAMS Development. All rights reserved
--- Starting compilation
--- Assignment_1_c.gms(42) 3 Mb
--- Starting execution: elapsed 0:00:00.112
--- Assignment_1_c.gms(40) 4 Mb
--- Generating LP model assignment1a
--- Assignment_1_c.gms(42) 4 Mb
---   11 rows  25 columns  69 non-zeroes
--- Executing CPLEX (Solvelink=2): elapsed 0:00:00.179

IBM ILOG CPLEX   37.1.0 r07954d5 Released Nov 11, 2021 WEI x86 64bit/MS Window

--- *** This solver runs with a demo license. No commercial use.

Reading parameter(s) from "C:\Users\Administrator\Documents\gamsdir\projdir\cplex.opt"
>>  objrng=all
>>  rhsrng=all
Finished reading from "C:\Users\Administrator\Documents\gamsdir\projdir\cplex.opt"

--- GMO setup time: 0.00s
--- GMO memory 0.50 Mb (peak 0.50 Mb)
--- Dictionary memory 0.00 Mb
--- Cplex 20.1.0.1 link memory 0.00 Mb (peak 0.00 Mb)
--- Starting Cplex

Version identifier: 20.1.0.1 | 2021-04-07 | 3a818710c
CPXPARAM_Advance                                 0
CPXPARAM_Simplex_Display                         2
CPXPARAM_Threads                                 1
CPXPARAM_MIP_Display                             4
CPXPARAM_MIP_Pool_Capacity                       0
CPXPARAM_MIP_Tolerances_AbsMIPGap                0
Tried aggregator 1 time.
LP Presolve eliminated 0 rows and 1 columns.
Reduced LP has 10 rows, 24 columns, and 48 nonzeros.
Presolve time = 0.05 sec. (0.01 ticks)
Initializing dual steep norms . . .

Iteration      Dual Objective            In Variable           Out Variable
     1            1750.000000                 x(3,5)        demand(5) slack
     2            2950.000000                 x(3,2)        demand(2) slack
     3            4030.000000                 x(2,1)        demand(1) slack
     4            5070.000000                 x(3,3)        demand(3) slack
     5            5285.000000                 x(2,2)             x(3,Dummy)
     6            5285.000000                 x(4,5)             x(2,Dummy)
     7            6055.000000                 x(1,4)        demand(4) slack
     8            6125.000000                 x(1,2)                 x(3,5)

--- LP status (1): optimal.
--- Cplex Time: 0.05sec (det. 0.03 ticks)

--- Start ranging / sensitivity analysis...
--- Right-hand-side ranging...

EQUATION NAME                            LOWER           CURRENT             UPPER
-------------                            -----           -------             -----
cost                                      -INF                NA              +INF   
supply(1)                                  290               290              +INF   
supply(2)                                  220               220               360   
supply(3)                                  180               180               320   
supply(4)                                  280               280              +INF   
demand(1)                                   40               180               180   
demand(2)                                   60               200               200   
demand(3)                                   20               160               160   
demand(4)                                    0               140               140   
demand(5)                                    0               250               250   
demand(Dummy)                             -INF                40                40   

--- Objective ranging...

VARIABLE NAME                            LOWER           CURRENT             UPPER
-------------                            -----           -------             -----
x(1.1)                                     6.5               7.5              +INF   
x(1.2)                                     6.5                 7                 7   
x(1.3)                                     7.5                 8              +INF   
x(1.4)                                       0               5.5                 6   
x(1.5)                                     7.5                 8              +INF   
x(1.Dummy)                                   0                 0                 0   
x(2.1)                                    -0.5                 6                 7   
x(2.2)                                     5.5               6.5               6.5   
x(2.3)                                       7                 7              +INF   
x(2.4)                                       5               7.5              +INF   
x(2.5)                                       7                 8              +INF   
x(2.Dummy)                                -0.5                 0              +INF   
x(3.1)                                     5.5                11              +INF   
x(3.2)                                       6                 6               6.5   
x(3.3)                                      -1               6.5               6.5   
x(3.4)                                     4.5                 7              +INF   
x(3.5)                                     6.5                 7              +INF   
x(3.Dummy)                                  -1                 0              +INF   
x(4.1)                                     6.5                 9              +INF   
x(4.2)                                       7                 7              +INF   
x(4.3)                                     7.5                10              +INF   
x(4.4)                                     5.5                 6              +INF   
x(4.5)                                       0               7.5                 8   
x(4.Dummy)                                -0.5                 0                 0   
z                                         -INF                NA              +INF   


Optimal solution found
Objective:         6125.000000

--- Reading solution for model assignment1a
--- Executing after solve: elapsed 0:00:00.600
*** Status: Normal completion
--- Job Assignment_1_c.gms Stop 12/30/21 21:43:11 elapsed 0:00:00.602
